Read MPS format model from file dat/rmp/DER_96_2048_40.mps
Reading time = 0.36 seconds
: 2144 rows, 12576 columns, 1070514 nonzeros
Gurobi Optimizer version 9.0.0 build v9.0.0rc2 (linux64)
Optimize a model with 2144 rows, 12576 columns and 1070514 nonzeros
Model fingerprint: 0xdb25e7b4
Coefficient statistics:
  Matrix range     [3e-13, 1e+01]
  Objective range  [8e-01, 1e+03]
  Bounds range     [1e+04, 1e+04]
  RHS range        [1e+00, 1e+00]
Ordering time: 0.00s

Barrier statistics:
 AA' NZ     : 1.906e+05
 Factor NZ  : 2.157e+05 (roughly 8 MBytes of memory)
 Factor Ops : 2.293e+07 (less than 1 second per iteration)
 Threads    : 1

                  Objective                Residual
Iter       Primal          Dual         Primal    Dual     Compl     Time
   0   7.51433055e+08 -1.41093209e+08  2.30e+06 2.96e-02  4.87e+05     0s
   1   3.12158185e+07 -2.19238070e+07  8.29e+04 3.64e-12  1.92e+04     0s
   2   2.91974236e+06 -5.57850524e+06  7.08e+03 5.46e-12  1.98e+03     0s
   3   8.91818189e+04 -2.57659809e+06  1.59e+02 1.73e-11  2.32e+02     0s
   4   1.47819537e+04 -5.22990811e+04  3.69e-11 5.46e-12  5.29e+00     1s
   5   1.45413403e+04  1.24508318e+04  6.58e-11 5.46e-12  1.65e-01     1s
   6   1.44337341e+04  1.39546769e+04  3.91e-11 5.46e-12  3.78e-02     1s
   7   1.43631384e+04  1.41753671e+04  4.36e-11 3.64e-12  1.48e-02     1s
   8   1.43105773e+04  1.42143738e+04  3.83e-11 1.82e-12  7.59e-03     1s
   9   1.42862804e+04  1.42365135e+04  6.42e-11 3.64e-12  3.93e-03     1s
  10   1.42748847e+04  1.42451353e+04  7.37e-11 3.64e-12  2.35e-03     1s
  11   1.42705915e+04  1.42474972e+04  1.05e-10 3.64e-12  1.82e-03     1s
  12   1.42639841e+04  1.42515666e+04  1.67e-10 3.64e-12  9.80e-04     1s
  13   1.42605496e+04  1.42530391e+04  2.32e-10 1.82e-12  5.93e-04     1s
  14   1.42586110e+04  1.42536685e+04  5.82e-10 1.82e-12  3.90e-04     1s
  15   1.42575159e+04  1.42539871e+04  5.75e-10 1.82e-12  2.78e-04     1s
  16   1.42558546e+04  1.42546333e+04  1.22e-09 3.64e-12  9.64e-05     2s
  17   1.42553916e+04  1.42548292e+04  1.16e-09 3.64e-12  4.44e-05     2s
  18   1.42550801e+04  1.42548765e+04  2.51e-09 3.64e-12  1.61e-05     2s
  19   1.42550416e+04  1.42548858e+04  1.94e-09 1.82e-12  1.23e-05     2s
  20   1.42550129e+04  1.42549041e+04  1.56e-09 3.64e-12  8.58e-06     2s
  21   1.42549384e+04  1.42549092e+04  3.54e-09 3.64e-12  2.30e-06     2s
  22   1.42549174e+04  1.42549107e+04  5.01e-09 3.64e-12  5.29e-07     2s
  23   1.42549110e+04  1.42549108e+04  1.20e-07 3.64e-12  1.42e-08     2s
  24   1.42549108e+04  1.42549108e+04  3.59e-07 3.64e-12  1.51e-09     2s
  25   1.42549108e+04  1.42549108e+04  1.15e-05 3.64e-12  5.74e-11     2s
  26   1.42549108e+04  1.42549108e+04  6.03e-09 3.64e-12  5.74e-14     2s

Barrier solved model in 26 iterations and 2.27 seconds
Optimal objective 1.42549108e+04

Solve time: 2.271994757
Barrier iterations: 26
